NAME: sim-grid-A-70
TYPE: TSP
COMMENT: Semi-regular Grid
DIMENSION: 70
EDGE_WEIGHT_TYPE: EUC_2D
NODE_COORD_SECTION
1 150 50
2 300 50
3 400 50
4 650 50
5 800 50
6 1300 50
7 50 100
8 150 100
9 300 100
10 400 100
11 550 100
12 650 100
13 800 100
14 1150 100
15 1300 100
16 1400 100
17 1550 100
18 50 250
19 100 250
20 250 250
21 300 250
22 650 250
23 700 250
24 1050 250
25 1100 250
26 1300 250
27 1500 250
28 50 300
29 100 300
30 250 300
31 300 300
32 450 300
33 700 300
34 900 300
35 1300 300
36 50 450
37 150 450
38 550 450
39 650 450
40 800 450
41 900 450
42 1050 450
43 1400 450
44 1550 450
45 300 500
46 400 500
47 550 500
48 650 500
49 1050 500
50 1150 500
51 1550 500
52 100 650
53 250 650
54 500 650
55 650 650
56 850 650
57 900 650
58 1100 650
59 1300 650
60 1450 650
61 50 700
62 250 700
63 300 700
64 450 700
65 650 700
66 850 700
67 1050 700
68 1100 700
69 1250 700
70 1500 700
EOF
